20	5			
34	6	63	85	60
11	65	4	1	73
63	67	3	73	100
22	46	88	1	66
76	4	34	9	76
20	22	7	3	28
44	30	55	68	92
29	89	12	96	71
54	12	21	74	2
62	96	61	79	53
50	13	48	40	37
89	69	57	1	70
50	56	8	67	46
32	24	23	87	62
12	88	64	14	13
59	78	95	59	48
41	20	83	65	20
94	48	26	93	3
28	59	10	81	20
66	33	34	8	5
